NAME          ClpDefau  FREE
ROWS
 N  OBJROW
 L  ZMUNI1_PCT
 L  ZMUNI2_PCT
 L  ZMUNI3_PCT
 L  ZMUNI4_PCT
 L  ZMUNI5_PCT
 L  ZMUNI6_PCT
 L  ZMUNI7_PCT
 L  ZMUNI8_PCT
 L  ZMUNI9_PCT
COLUMNS
    QMUNI1 OBJROW 1.          
    QMUNI1 ZMUNI1_PCT 27902.927995
    QMUNI1 ZMUNI2_PCT 1761.10267  
    QMUNI1 ZMUNI3_PCT 4333.09078  
    QMUNI1 ZMUNI4_PCT 3077.41165  
    QMUNI1 ZMUNI5_PCT 232.83958   
    QMUNI1 ZMUNI6_PCT 421.04125   
    QMUNI1 ZMUNI7_PCT 1760.4828   
    QMUNI1 ZMUNI8_PCT 1472.94998  
    QMUNI1 ZMUNI9_PCT 651.57413   
    QMUNI2 OBJROW 1.          
    QMUNI2 ZMUNI1_PCT 1473.56689  
    QMUNI2 ZMUNI2_PCT 32325.50621 
    QMUNI2 ZMUNI3_PCT 2332.11517  
    QMUNI2 ZMUNI4_PCT 2475.35706  
    QMUNI2 ZMUNI5_PCT  -191.78391 
    QMUNI2 ZMUNI6_PCT  -143.796206
    QMUNI2 ZMUNI7_PCT 385.8567    
    QMUNI2 ZMUNI8_PCT 655.46036   
    QMUNI2 ZMUNI9_PCT 596.1895    
    QMUNI3 OBJROW 1.          
    QMUNI3 ZMUNI1_PCT 4241.785407 
    QMUNI3 ZMUNI2_PCT 2577.25715  
    QMUNI3 ZMUNI3_PCT 29174.92389 
    QMUNI3 ZMUNI4_PCT 5096.24481  
    QMUNI3 ZMUNI5_PCT 203.77636   
    QMUNI3 ZMUNI6_PCT 297.46294   
    QMUNI3 ZMUNI7_PCT 1338.1958   
    QMUNI3 ZMUNI8_PCT 1277.82822  
    QMUNI3 ZMUNI9_PCT 580.93071   
    QMUNI4 OBJROW 1.          
    QMUNI4 ZMUNI1_PCT 3485.736251 
    QMUNI4 ZMUNI2_PCT 3162.50324  
    QMUNI4 ZMUNI3_PCT 5760.24055  
    QMUNI4 ZMUNI4_PCT 99710.94129 
    QMUNI4 ZMUNI5_PCT 352.71644   
    QMUNI4 ZMUNI6_PCT 422.996282  
    QMUNI4 ZMUNI7_PCT 1483.8219   
    QMUNI4 ZMUNI8_PCT 1546.85974  
    QMUNI4 ZMUNI9_PCT 1137.42351  
    QMUNI5 OBJROW 1.          
    QMUNI5 ZMUNI1_PCT  -69.874525 
    QMUNI5 ZMUNI2_PCT  -137.25758 
    QMUNI5 ZMUNI3_PCT  -103.90282 
    QMUNI5 ZMUNI4_PCT  -103.9505  
    QMUNI5 ZMUNI5_PCT 30735.93378 
    QMUNI5 ZMUNI6_PCT 2481.096983 
    QMUNI5 ZMUNI7_PCT  -90.6944   
    QMUNI5 ZMUNI8_PCT  -182.34253 
    QMUNI5 ZMUNI9_PCT  -213.33695 
    QMUNI6 OBJROW 1.          
    QMUNI6 ZMUNI1_PCT 121.635198  
    QMUNI6 ZMUNI2_PCT  -78.24898  
    QMUNI6 ZMUNI3_PCT 36.09657    
    QMUNI6 ZMUNI4_PCT 3.8147      
    QMUNI6 ZMUNI5_PCT 2437.18624  
    QMUNI6 ZMUNI6_PCT 29888.647795
    QMUNI6 ZMUNI7_PCT 140.7624    
    QMUNI6 ZMUNI8_PCT  -76.19858  
    QMUNI6 ZMUNI9_PCT  -228.73879 
    QMUNI7 OBJROW 1.          
    QMUNI7 ZMUNI1_PCT 1279.839873 
    QMUNI7 ZMUNI2_PCT 703.66859   
    QMUNI7 ZMUNI3_PCT 1112.15114  
    QMUNI7 ZMUNI4_PCT 807.66678   
    QMUNI7 ZMUNI5_PCT 262.30812   
    QMUNI7 ZMUNI6_PCT 416.022539  
    QMUNI7 ZMUNI7_PCT 25879.7646  
    QMUNI7 ZMUNI8_PCT 2167.12952  
    QMUNI7 ZMUNI9_PCT 761.34205   
    QMUNI8 OBJROW 1.          
    QMUNI8 ZMUNI1_PCT 1165.902614 
    QMUNI8 ZMUNI2_PCT 947.23701   
    QMUNI8 ZMUNI3_PCT 1180.48191  
    QMUNI8 ZMUNI4_PCT 910.75898   
    QMUNI8 ZMUNI5_PCT 318.55106   
    QMUNI8 ZMUNI6_PCT 394.833088  
    QMUNI8 ZMUNI7_PCT 2145.4811   
    QMUNI8 ZMUNI8_PCT 25149.15466 
    QMUNI8 ZMUNI9_PCT 1045.51315  
    QMUNI9 OBJROW 1.          
    QMUNI9 ZMUNI1_PCT 475.755334  
    QMUNI9 ZMUNI2_PCT 829.81586   
    QMUNI9 ZMUNI3_PCT 592.44632   
    QMUNI9 ZMUNI4_PCT 528.52631   
    QMUNI9 ZMUNI5_PCT 0.33378     
    QMUNI9 ZMUNI6_PCT 5.400181    
    QMUNI9 ZMUNI7_PCT 280.8571    
    QMUNI9 ZMUNI8_PCT 850.77286   
    QMUNI9 ZMUNI9_PCT 23504.49562 
RHS
    RHS ZMUNI1_PCT  -2.70506129
    RHS ZMUNI2_PCT  -3.33840756
    RHS ZMUNI3_PCT  -3.68028122
    RHS ZMUNI4_PCT  -5.03851476
    RHS ZMUNI5_PCT  -1.42793812
    RHS ZMUNI6_PCT  -1.90724088
    RHS ZMUNI7_PCT  -2.83562423
    RHS ZMUNI8_PCT  -3.43810595
    RHS ZMUNI9_PCT  -4.34361982
BOUNDS
 LO BOUND QMUNI1 -0.001337207
 UP BOUND QMUNI1      1.1e+10
 LO BOUND QMUNI2 -0.000998496
 UP BOUND QMUNI2      1.1e+10
 LO BOUND QMUNI3 -0.001083838
 UP BOUND QMUNI3      1.1e+10
 LO BOUND QMUNI4 -0.000382733
 UP BOUND QMUNI4      1.1e+10
 LO BOUND QMUNI5 -0.000936226
 UP BOUND QMUNI5      1.1e+10
 LO BOUND QMUNI6 -0.001131883
 UP BOUND QMUNI6      1.1e+10
 LO BOUND QMUNI7 -0.000825037
 UP BOUND QMUNI7      1.1e+10
 LO BOUND QMUNI8 -0.000928188
 UP BOUND QMUNI8      1.1e+10
 LO BOUND QMUNI9 -0.001115465
 UP BOUND QMUNI9      1.1e+10
ENDATA
